0,16,40,18,38,47,52,19,50,76,70
16,0,33,19,23,34,59,13,35,82,73
40,33,0,22,41,20,92,47,28,115,106
18,19,22,0,38,34,70,31,39,95,88
38,23,41,38,0,28,71,26,23,91,77
47,34,20,34,28,0,93,45,8,115,103
52,59,92,70,71,93,0,47,92,24,25
19,13,47,31,26,45,47,0,44,70,59
50,35,28,39,23,8,92,44,0,113,100
76,82,115,95,91,115,24,70,113,0,20
70,73,106,88,77,103,25,59,100,20,0